(declare-const X String)
; /^\/[\w-]{48}\.[a-z]{2,8}[0-9]?$/U
(assert (not (str.in.re X (re.++ (str.to.re "//") ((_ re.loop 48 48) (re.union (str.to.re "-") (re.range "0" "9") (re.range "A" "Z") (re.range "a" "z") (str.to.re "_"))) (str.to.re ".") ((_ re.loop 2 8) (re.range "a" "z")) (re.opt (re.range "0" "9")) (str.to.re "/U\x0a")))))
; Explorer\x2Fsto=notificationfind
(assert (not (str.in.re X (str.to.re "Explorer/sto=notification\x13find\x0a"))))
; Host\x3a[^\n\r]*A-311\s+lnzzlnbk\x2fpkrm\.finSubject\x3aBasic
(assert (not (str.in.re X (re.++ (str.to.re "Host:") (re.* (re.union (str.to.re "\x0a") (str.to.re "\x0d"))) (str.to.re "A-311") (re.+ (re.union (str.to.re " ") (str.to.re "\x09") (str.to.re "\x0a") (str.to.re "\x0c") (str.to.re "\x0d"))) (str.to.re "lnzzlnbk/pkrm.finSubject:Basic\x0a")))))
; /filename=[^\n]*\x2egif/i
(assert (str.in.re X (re.++ (str.to.re "/filename=") (re.* (re.comp (str.to.re "\x0a"))) (str.to.re ".gif/i\x0a"))))
(check-sat)
